
Gurobi 7.5.2 (linux64) logging started Sat Jul  7 16:16:37 2018

Changed value of parameter LogFile to result/ilp/simNo_4-n_100-m_40-s_4-minVAF_0.05-cov_10000-k_1-fn_0.05-fp_0.0001-na_0.15.ILP.gurobiSolverLog
   Prev: gurobi.log  Default: 
Changed value of parameter TimeLimit to 86400.0
   Prev: 1e+100  Min: 0.0  Max: 1e+100  Default: 1e+100
Optimize a model with 639293 rows, 10765 columns and 1940420 nonzeros
Variable types: 0 continuous, 10765 integer (10765 binary)
Coefficient statistics:
  Matrix range     [4e-04, 4e+00]
  Objective range  [1e-01, 9e+00]
  Bounds range     [1e+00, 1e+00]
  RHS range        [3e-01, 2e+00]
Found heuristic solution: objective -20818.60125
Presolve removed 125447 rows and 983 columns (presolve time = 5s) ...
Presolve removed 125447 rows and 983 columns (presolve time = 10s) ...
Presolve removed 125985 rows and 983 columns (presolve time = 17s) ...
Presolve removed 179785 rows and 1521 columns (presolve time = 20s) ...
Presolve removed 179785 rows and 1521 columns
Presolve time: 23.58s
Presolved: 459508 rows, 9244 columns, 1384359 nonzeros
Variable types: 0 continuous, 9244 integer (9244 binary)
Presolved: 9244 rows, 468752 columns, 1393603 nonzeros

Presolve removed 9244 rows and 468752 columns

Root simplex log...

Iteration    Objective       Primal Inf.    Dual Inf.      Time
       0    3.9933599e+00   0.000000e+00   9.949600e+04     27s
   17890   -2.0095939e+02   0.000000e+00   1.730455e+05     30s
   28772   -2.4539622e+02   0.000000e+00   0.000000e+00     35s
   28772   -2.4539622e+02   0.000000e+00   0.000000e+00     36s

Root relaxation: objective -2.453962e+02, 28772 iterations, 10.54 seconds
Total elapsed time = 117.97s
Total elapsed time = 156.81s
Total elapsed time = 200.71s

    Nodes    |    Current Node    |     Objective Bounds      |     Work
 Expl Unexpl |  Obj  Depth IntInf | Incumbent    BestBd   Gap | It/Node Time

     0     0 -245.39622    0  774 -20818.601 -245.39622  98.8%     -  218s
H    0     0                    -287.4864502 -245.39622  14.6%     -  221s
H    0     0                    -276.2623902 -245.39622  11.2%     -  224s
     0     0 -249.40476    0  748 -276.26239 -249.40476  9.72%     -  594s
     0     0 -249.59532    0  745 -276.26239 -249.59532  9.65%     -  641s
     0     0 -252.41126    0  762 -276.26239 -252.41126  8.63%     - 6101s
     0     0 -252.41126    0  778 -276.26239 -252.41126  8.63%     - 6121s
     0     0 -252.72230    0  786 -276.26239 -252.72230  8.52%     - 7621s
     0     0 -252.72230    0  692 -276.26239 -252.72230  8.52%     - 8350s
     0     0 -252.72230    0  695 -276.26239 -252.72230  8.52%     - 8356s
     0     0 -253.34527    0  773 -276.26239 -253.34527  8.30%     - 9967s
     0     0 -253.34527    0  776 -276.26239 -253.34527  8.30%     - 9974s
     0     0 -254.74828    0  820 -276.26239 -254.74828  7.79%     - 18326s
     0     0 -254.74828    0  810 -276.26239 -254.74828  7.79%     - 18344s
     0     0 -254.74828    0  843 -276.26239 -254.74828  7.79%     - 18360s
H    0     0                    -273.4563751 -254.74828  6.84%     - 18368s
     0     0 -254.74828    0  843 -273.45638 -254.74828  6.84%     - 18370s
     0     0 -255.21728    0  627 -273.45638 -255.21728  6.67%     - 20172s
     0     0 -255.21728    0  659 -273.45638 -255.21728  6.67%     - 20188s
     0     0 -256.62029    0  723 -273.45638 -256.62029  6.16%     - 40239s
     0     0 -256.62029    0  731 -273.45638 -256.62029  6.16%     - 40249s
     0     0 -257.60239    0  861 -273.45638 -257.60239  5.80%     - 43466s
     0     0 -257.78946    0  855 -273.45638 -257.78946  5.73%     - 44494s
     0     0 -257.78946    0  797 -273.45638 -257.78946  5.73%     - 44503s
     0     0 -259.19247    0  854 -273.45638 -259.19247  5.22%     - 64109s
     0     0 -259.19247    0  850 -273.45638 -259.19247  5.22%     - 64120s
     0     0 -260.36164    0  835 -273.45638 -260.36164  4.79%     - 66080s
     0     0 -260.36164    0  895 -273.45638 -260.36164  4.79%     - 66101s
     0     0 -261.29698    0  868 -273.45638 -261.29698  4.45%     - 67108s
     0     0 -261.29698    0  861 -273.45638 -261.29698  4.45%     - 67115s
     0     0 -262.51292    0  714 -273.45638 -262.51292  4.00%     - 71923s
     0     0 -262.51292    0  720 -273.45638 -262.51292  4.00%     - 71933s
     0     0 -264.33683    0  680 -273.45638 -264.33683  3.33%     - 76498s
     0     0 -264.57066    0  670 -273.45638 -264.57066  3.25%     - 76530s
     0     0 -264.57066    0  687 -273.45638 -264.57066  3.25%     - 76536s
     0     0 -265.03833    0  551 -273.45638 -265.03833  3.08%     - 77961s
     0     0 -265.03833    0  774 -273.45638 -265.03833  3.08%     - 78124s
     0     0 -265.03833    0  751 -273.45638 -265.03833  3.08%     - 78126s
     0     0 -265.03833    0  804 -273.45638 -265.03833  3.08%     - 78127s
     0     0 -265.03833    0  766 -273.45638 -265.03833  3.08%     - 78128s
     0     0 -265.03833    0  744 -273.45638 -265.03833  3.08%     - 78128s
     0     0 -266.54926    0  621 -273.45638 -266.54926  2.53%     - 78130s
     0     0 -266.72194    0  640 -273.45638 -266.72194  2.46%     - 78131s
     0     0 -266.72194    0  638 -273.45638 -266.72194  2.46%     - 78131s
     0     0 -266.72194    0  651 -273.45638 -266.72194  2.46%     - 78132s
     0     0 -266.72194    0  651 -273.45638 -266.72194  2.46%     - 78133s
     0     0 -266.90901    0  628 -273.45638 -266.90901  2.39%     - 78134s
     0     0 -266.90901    0  639 -273.45638 -266.90901  2.39%     - 78134s
     0     0 -266.90901    0  636 -273.45638 -266.90901  2.39%     - 78135s
     0     0 -266.90901    0  600 -273.45638 -266.90901  2.39%     - 78136s
     0     0 -266.90901    0  543 -273.45638 -266.90901  2.39%     - 78146s
     0     0 -266.90901    0  540 -273.45638 -266.90901  2.39%     - 78147s
     0     0 -266.90901    0  543 -273.45638 -266.90901  2.39%     - 78152s
     0     0 -266.90901    0  552 -273.45638 -266.90901  2.39%     - 78153s
     0     0 -266.90901    0  548 -273.45638 -266.90901  2.39%     - 78158s
     0     0 -266.90901    0  606 -273.45638 -266.90901  2.39%     - 78159s
     0     0 -266.90901    0  530 -273.45638 -266.90901  2.39%     - 78167s
     0     0 -266.90901    0  600 -273.45638 -266.90901  2.39%     - 78168s
     0     0 -266.90901    0  555 -273.45638 -266.90901  2.39%     - 78173s
     0     0 -266.90901    0  552 -273.45638 -266.90901  2.39%     - 78193s
     0     0 -266.90901    0  774 -273.45638 -266.90901  2.39%     - 78201s
     0     0 -266.90901    0  787 -273.45638 -266.90901  2.39%     - 78203s
     0     0 -266.90901    0  748 -273.45638 -266.90901  2.39%     - 78204s
     0     0 -266.90901    0  753 -273.45638 -266.90901  2.39%     - 78204s
     0     0 -266.90901    0  754 -273.45638 -266.90901  2.39%     - 78205s
     0     0 -266.90901    0  783 -273.45638 -266.90901  2.39%     - 78205s
     0     0 -267.84435    0  797 -273.45638 -267.84435  2.05%     - 78206s
     0     0 -267.84435    0  655 -273.45638 -267.84435  2.05%     - 78206s
     0     0 -267.84435    0  652 -273.45638 -267.84435  2.05%     - 78207s
     0     0 -267.84435    0  652 -273.45638 -267.84435  2.05%     - 78208s
     0     0 -267.84435    0  642 -273.45638 -267.84435  2.05%     - 78208s
     0     0 -267.84435    0  642 -273.45638 -267.84435  2.05%     - 78209s
     0     0 -267.84435    0  406 -273.45638 -267.84435  2.05%     - 78216s
     0     0 -267.84435    0  374 -273.45638 -267.84435  2.05%     - 78216s
     0     0 -267.84435    0  454 -273.45638 -267.84435  2.05%     - 78221s
     0     0 -267.84435    0  468 -273.45638 -267.84435  2.05%     - 78222s
     0     0 -267.84435    0  526 -273.45638 -267.84435  2.05%     - 78228s
     0     0 -267.84435    0  520 -273.45638 -267.84435  2.05%     - 78233s
     0     0 -267.84435    0  519 -273.45638 -267.84435  2.05%     - 78237s
     0     0 -267.84435    0  519 -273.45638 -267.84435  2.05%     - 78252s
     0     0 -267.84435    0  769 -273.45638 -267.84435  2.05%     - 78259s
     0     0 -267.84435    0  500 -273.45638 -267.84435  2.05%     - 78261s
     0     0 -267.84435    0  448 -273.45638 -267.84435  2.05%     - 78262s
     0     0 -267.84435    0  456 -273.45638 -267.84435  2.05%     - 78263s
     0     0 -267.84435    0  482 -273.45638 -267.84435  2.05%     - 78263s
     0     0 -267.84435    0  446 -273.45638 -267.84435  2.05%     - 78264s
     0     0 -267.84435    0  325 -273.45638 -267.84435  2.05%     - 78271s
     0     0 -267.84435    0  527 -273.45638 -267.84435  2.05%     - 78276s
     0     0 -267.84435    0  622 -273.45638 -267.84435  2.05%     - 78276s
     0     0 -267.84435    0  464 -273.45638 -267.84435  2.05%     - 78281s
     0     0 -267.84435    0  420 -273.45638 -267.84435  2.05%     - 78281s
     0     0 -267.84435    0  343 -273.45638 -267.84435  2.05%     - 78288s
     0     0 -267.84435    0  454 -273.45638 -267.84435  2.05%     - 78289s
     0     0 -267.84435    0  385 -273.45638 -267.84435  2.05%     - 78293s
     0     0 -267.84435    0  381 -273.45638 -267.84435  2.05%     - 78306s
     0     2 -267.84435    0  381 -273.45638 -267.84435  2.05%     - 78310s
    11     5 -271.58570    7  438 -273.45638 -268.54585  1.80%   292 78315s
    53    15 -272.05337    4  176 -273.45638 -270.65036  1.03%   108 78320s

Cutting planes:
  Gomory: 8
  MIR: 1
  Zero half: 46

Explored 110 nodes (2351953 simplex iterations) in 78323.85 seconds
Thread count was 1 (of 80 available processors)

Solution count 7: -273.456 -273.456 -273.456 ... -20818.6

Optimal solution found (tolerance 1.00e-04)
Best objective -2.734563751358e+02, best bound -2.734563751358e+02, gap 0.0000%
